(set-info :smt-lib-version 2.6)
(set-logic QF_LRA)
(set-info :source |
The Formal Verification of a Reintegration Protocol. Author: Lee Pike. Website: http://www.cs.indiana.edu/~lepike/pub_pages/emsoft.html.

This benchmark was automatically translated into SMT-LIB format from
CVC format using CVC Lite
|)
(set-info :category "industrial")
(set-info :status unsat)
(declare-fun x_0 () Real)
(declare-fun x_1 () Real)
(declare-fun x_2 () Real)
(declare-fun x_3 () Real)
(declare-fun x_4 () Real)
(declare-fun x_5 () Real)
(declare-fun x_6 () Real)
(declare-fun x_7 () Real)
(declare-fun x_8 () Real)
(declare-fun x_9 () Real)
(declare-fun x_10 () Real)
(declare-fun x_11 () Bool)
(declare-fun x_12 () Bool)
(declare-fun x_13 () Bool)
(declare-fun x_14 () Real)
(declare-fun x_15 () Real)
(declare-fun x_16 () Bool)
(declare-fun x_17 () Bool)
(declare-fun x_18 () Bool)
(declare-fun x_19 () Real)
(declare-fun x_20 () Real)
(declare-fun x_21 () Bool)
(declare-fun x_22 () Bool)
(declare-fun x_23 () Bool)
(declare-fun x_24 () Real)
(declare-fun x_25 () Real)
(declare-fun x_26 () Bool)
(declare-fun x_27 () Bool)
(declare-fun x_28 () Bool)
(declare-fun x_29 () Real)
(declare-fun x_30 () Real)
(declare-fun x_31 () Bool)
(declare-fun x_32 () Bool)
(declare-fun x_33 () Bool)
(declare-fun x_34 () Real)
(declare-fun x_35 () Real)
(declare-fun x_36 () Real)
(declare-fun x_37 () Real)
(declare-fun x_38 () Bool)
(declare-fun x_39 () Bool)
(declare-fun x_40 () Bool)
(declare-fun x_41 () Bool)
(declare-fun x_42 () Bool)
(declare-fun x_43 () Bool)
(declare-fun x_44 () Bool)
(declare-fun x_45 () Bool)
(declare-fun x_46 () Bool)
(declare-fun x_47 () Bool)
(declare-fun x_48 () Bool)
(declare-fun x_49 () Bool)
(declare-fun x_50 () Real)
(declare-fun x_51 () Real)
(declare-fun x_52 () Bool)
(declare-fun x_53 () Bool)
(declare-fun x_54 () Bool)
(declare-fun x_55 () Bool)
(declare-fun x_56 () Bool)
(declare-fun x_57 () Bool)
(declare-fun x_58 () Real)
(declare-fun x_59 () Real)
(declare-fun x_60 () Real)
(declare-fun x_61 () Real)
(declare-fun x_62 () Real)
(declare-fun x_63 () Real)
(declare-fun x_64 () Real)
(declare-fun x_65 () Real)
(declare-fun x_66 () Real)
(declare-fun x_67 () Real)
(declare-fun x_68 () Real)
(declare-fun x_69 () Real)
(declare-fun x_70 () Real)
(declare-fun x_71 () Real)
(declare-fun x_72 () Bool)
(declare-fun x_73 () Real)
(declare-fun x_74 () Real)
(declare-fun x_75 () Real)
(declare-fun x_76 () Real)
(declare-fun x_77 () Bool)
(declare-fun x_78 () Bool)
(declare-fun x_79 () Bool)
(declare-fun x_80 () Bool)
(declare-fun x_81 () Bool)
(declare-fun x_82 () Bool)
(declare-fun x_83 () Real)
(declare-fun x_84 () Bool)
(declare-fun x_85 () Bool)
(declare-fun x_86 () Bool)
(declare-fun x_87 () Real)
(declare-fun x_88 () Real)
(declare-fun x_89 () Real)
(declare-fun x_90 () Real)
(declare-fun x_91 () Real)
(declare-fun x_92 () Real)
(declare-fun x_93 () Real)
(declare-fun x_94 () Real)
(declare-fun x_95 () Real)
(declare-fun x_96 () Bool)
(declare-fun x_97 () Real)
(declare-fun x_98 () Real)
(declare-fun x_99 () Real)
(declare-fun x_100 () Real)
(declare-fun x_101 () Bool)
(declare-fun x_102 () Bool)
(declare-fun x_103 () Bool)
(declare-fun x_104 () Bool)
(declare-fun x_105 () Bool)
(declare-fun x_106 () Bool)
(declare-fun x_107 () Real)
(declare-fun x_108 () Bool)
(declare-fun x_109 () Bool)
(declare-fun x_110 () Bool)
(declare-fun x_111 () Real)
(declare-fun x_112 () Real)
(declare-fun x_113 () Real)
(declare-fun x_114 () Real)
(declare-fun x_115 () Real)
(declare-fun x_116 () Real)
(declare-fun x_117 () Real)
(declare-fun x_118 () Real)
(declare-fun x_119 () Real)
(declare-fun x_120 () Bool)
(declare-fun x_121 () Real)
(declare-fun x_122 () Real)
(declare-fun x_123 () Real)
(declare-fun x_124 () Real)
(declare-fun x_125 () Bool)
(declare-fun x_126 () Bool)
(declare-fun x_127 () Bool)
(declare-fun x_128 () Bool)
(declare-fun x_129 () Bool)
(declare-fun x_130 () Bool)
(declare-fun x_131 () Real)
(declare-fun x_132 () Real)
(declare-fun x_133 () Real)
(declare-fun x_134 () Bool)
(declare-fun x_135 () Bool)
(declare-fun x_136 () Bool)
(declare-fun x_137 () Real)
(declare-fun x_138 () Real)
(declare-fun x_139 () Real)
(declare-fun x_140 () Real)
(declare-fun x_141 () Real)
(declare-fun x_142 () Real)
(declare-fun x_143 () Real)
(declare-fun x_144 () Real)
(declare-fun x_145 () Real)
(declare-fun x_146 () Bool)
(declare-fun x_147 () Real)
(declare-fun x_148 () Real)
(declare-fun x_149 () Real)
(assert (let ((?v_240 (+ x_9 x_35)) (?v_283 (<= x_36 x_37)) (?v_265 (= x_16 x_11)) (?v_213 (= x_19 0)) (?v_225 (< x_36 x_8)) (?v_250 (= x_37 x_36)) (?v_266 (= x_19 2)) (?v_274 (= x_38 x_39)) (?v_275 (and (= x_40 x_41) (= x_42 x_43))) (?v_263 (= x_44 x_45)) (?v_264 (and (= x_46 x_47) (= x_48 x_49))) (?v_276 (= x_50 x_51)) (?v_277 (and (= x_2 x_0) (= x_3 x_1))) (?v_235 (= x_15 x_8)) (?v_262 (= x_17 x_12)) (?v_260 (= x_52 x_53)) (?v_261 (and (= x_54 x_55) (= x_56 x_57))) (?v_278 (= x_18 x_13)) (?v_284 (- x_58 x_9)) (?v_214 (= x_19 1)) (?v_257 (+ x_35 x_9)) (?v_253 (<= x_59 x_37))) (let ((?v_259 (= x_38 (or x_39 (and ?v_253 x_53)))) (?v_243 (<= x_62 ?v_240)) (?v_245 (<= x_63 ?v_240)) (?v_242 (<= x_62 x_35)) (?v_244 (<= x_63 x_35)) (?v_237 (not x_41)) (?v_267 (< x_62 x_36)) (?v_268 (= x_37 x_62)) (?v_239 (not x_43)) (?v_269 (< x_63 x_36)) (?v_270 (= x_37 x_63)) (?v_228 (not x_39)) (?v_285 (not ?v_283)) (?v_247 (not x_55)) (?v_248 (not x_57)) (?v_249 (not x_53))) (let ((?v_236 (not ?v_242))) (let ((?v_251 (and ?v_236 (<= x_62 x_37))) (?v_238 (not ?v_244))) (let ((?v_252 (and ?v_238 (<= x_63 x_37)))) (let ((?v_258 (and (= x_40 (or x_41 (and ?v_251 x_55))) (= x_42 (or x_43 (and ?v_252 x_57))))) (?v_246 (<= x_59 ?v_240)) (?v_271 (< x_59 x_36)) (?v_272 (= x_37 x_59)) (?v_254 (not ?v_243)) (?v_255 (not ?v_245)) (?v_2 (and (not (<= x_59 x_35)) ?v_253)) (?v_3 (and (not (<= x_64 x_35)) (<= x_64 x_37)))) (let ((?v_256 (not ?v_246)) (?v_174 (+ x_9 x_37)) (?v_217 (<= x_58 x_76)) (?v_199 (= x_21 x_16)) (?v_147 (= x_24 0)) (?v_159 (< x_58 x_15)) (?v_184 (= x_76 x_58)) (?v_200 (= x_24 2)) (?v_208 (= x_77 x_38)) (?v_209 (and (= x_78 x_40) (= x_79 x_42))) (?v_197 (= x_80 x_44)) (?v_198 (and (= x_81 x_46) (= x_82 x_48))) (?v_210 (= x_83 x_50)) (?v_211 (and (= x_4 x_2) (= x_5 x_3))) (?v_169 (= x_20 x_15)) (?v_196 (= x_22 x_17)) (?v_194 (= x_84 x_52)) (?v_195 (and (= x_85 x_54) (= x_86 x_56))) (?v_212 (= x_23 x_18)) (?v_218 (- x_87 x_9)) (?v_148 (= x_24 1)) (?v_191 (+ x_37 x_9)) (?v_187 (<= x_73 x_76))) (let ((?v_193 (= x_77 (or x_38 (and ?v_187 x_52)))) (?v_177 (<= x_70 ?v_174)) (?v_179 (<= x_71 ?v_174)) (?v_176 (<= x_70 x_37)) (?v_178 (<= x_71 x_37)) (?v_171 (not x_40)) (?v_201 (< x_70 x_58)) (?v_202 (= x_76 x_70)) (?v_173 (not x_42)) (?v_203 (< x_71 x_58)) (?v_204 (= x_76 x_71)) (?v_162 (not x_38)) (?v_219 (not ?v_217)) (?v_181 (not x_54)) (?v_182 (not x_56)) (?v_183 (not x_52))) (let ((?v_170 (not ?v_176))) (let ((?v_185 (and ?v_170 (<= x_70 x_76))) (?v_172 (not ?v_178))) (let ((?v_186 (and ?v_172 (<= x_71 x_76)))) (let ((?v_192 (and (= x_78 (or x_40 (and ?v_185 x_54))) (= x_79 (or x_42 (and ?v_186 x_56))))) (?v_180 (<= x_73 ?v_174)) (?v_205 (< x_73 x_58)) (?v_206 (= x_76 x_73)) (?v_188 (not ?v_177)) (?v_189 (not ?v_179)) (?v_286 (not (<= x_73 x_37)))) (let ((?v_8 (and ?v_286 ?v_187)) (?v_287 (not (<= x_74 x_37)))) (let ((?v_9 (and ?v_287 (<= x_74 x_76))) (?v_190 (not ?v_180)) (?v_108 (+ x_9 x_76)) (?v_151 (<= x_87 x_100)) (?v_133 (= x_26 x_21)) (?v_83 (= x_29 0)) (?v_93 (< x_87 x_20)) (?v_118 (= x_100 x_87)) (?v_134 (= x_29 2)) (?v_142 (= x_101 x_77)) (?v_143 (and (= x_102 x_78) (= x_103 x_79))) (?v_131 (= x_104 x_80)) (?v_132 (and (= x_105 x_81) (= x_106 x_82))) (?v_144 (= x_107 x_83)) (?v_145 (and (= x_6 x_4) (= x_7 x_5))) (?v_103 (= x_25 x_20)) (?v_130 (= x_27 x_22)) (?v_128 (= x_108 x_84)) (?v_129 (and (= x_109 x_85) (= x_110 x_86))) (?v_146 (= x_28 x_23)) (?v_152 (- x_111 x_9)) (?v_84 (= x_29 1)) (?v_125 (+ x_76 x_9)) (?v_121 (<= x_97 x_100))) (let ((?v_127 (= x_101 (or x_77 (and ?v_121 x_84)))) (?v_111 (<= x_94 ?v_108)) (?v_113 (<= x_95 ?v_108)) (?v_110 (<= x_94 x_76)) (?v_112 (<= x_95 x_76)) (?v_105 (not x_78)) (?v_135 (< x_94 x_87)) (?v_136 (= x_100 x_94)) (?v_107 (not x_79)) (?v_137 (< x_95 x_87)) (?v_138 (= x_100 x_95)) (?v_96 (not x_77)) (?v_153 (not ?v_151)) (?v_115 (not x_85)) (?v_116 (not x_86)) (?v_117 (not x_84))) (let ((?v_104 (not ?v_110))) (let ((?v_119 (and ?v_104 (<= x_94 x_100))) (?v_106 (not ?v_112))) (let ((?v_120 (and ?v_106 (<= x_95 x_100)))) (let ((?v_126 (and (= x_102 (or x_78 (and ?v_119 x_85))) (= x_103 (or x_79 (and ?v_120 x_86))))) (?v_114 (<= x_97 ?v_108)) (?v_139 (< x_97 x_87)) (?v_140 (= x_100 x_97)) (?v_122 (not ?v_111)) (?v_123 (not ?v_113)) (?v_220 (not (<= x_97 x_76)))) (let ((?v_14 (and ?v_220 ?v_121)) (?v_221 (not (<= x_98 x_76)))) (let ((?v_15 (and ?v_221 (<= x_98 x_100))) (?v_124 (not ?v_114)) (?v_45 (+ x_9 x_100)) (?v_87 (<= x_111 x_124)) (?v_69 (= x_31 x_26)) (?v_25 (= x_34 0)) (?v_29 (< x_111 x_25)) (?v_54 (= x_124 x_111)) (?v_70 (= x_34 2)) (?v_78 (= x_125 x_101)) (?v_79 (and (= x_126 x_102) (= x_127 x_103))) (?v_67 (= x_128 x_104)) (?v_68 (and (= x_129 x_105) (= x_130 x_106))) (?v_80 (= x_131 x_107)) (?v_81 (and (= x_132 x_6) (= x_133 x_7))) (?v_39 (= x_30 x_25)) (?v_66 (= x_32 x_27)) (?v_64 (= x_134 x_108)) (?v_65 (and (= x_135 x_109) (= x_136 x_110))) (?v_82 (= x_33 x_28)) (?v_88 (- x_137 x_9)) (?v_40 (= x_34 1)) (?v_61 (+ x_100 x_9)) (?v_57 (<= x_121 x_124))) (let ((?v_63 (= x_125 (or x_101 (and ?v_57 x_108)))) (?v_47 (<= x_118 ?v_45)) (?v_49 (<= x_119 ?v_45)) (?v_46 (<= x_118 x_100)) (?v_48 (<= x_119 x_100)) (?v_42 (not x_102)) (?v_71 (< x_118 x_111)) (?v_72 (= x_124 x_118)) (?v_44 (not x_103)) (?v_73 (< x_119 x_111)) (?v_74 (= x_124 x_119)) (?v_32 (not x_101)) (?v_89 (not ?v_87)) (?v_51 (not x_109)) (?v_52 (not x_110)) (?v_53 (not x_108))) (let ((?v_41 (not ?v_46))) (let ((?v_55 (and ?v_41 (<= x_118 x_124))) (?v_43 (not ?v_48))) (let ((?v_56 (and ?v_43 (<= x_119 x_124)))) (let ((?v_62 (and (= x_126 (or x_102 (and ?v_55 x_109))) (= x_127 (or x_103 (and ?v_56 x_110))))) (?v_50 (<= x_121 ?v_45)) (?v_75 (< x_121 x_111)) (?v_76 (= x_124 x_121)) (?v_58 (not ?v_47)) (?v_59 (not ?v_49)) (?v_154 (not (<= x_121 x_100)))) (let ((?v_20 (and ?v_154 ?v_57)) (?v_155 (not (<= x_122 x_100)))) (let ((?v_21 (and ?v_155 (<= x_122 x_124))) (?v_60 (not ?v_50)) (?v_230 (= x_2 0)) (?v_222 (= x_2 3)) (?v_232 (= x_3 0)) (?v_223 (= x_3 3)) (?v_164 (= x_4 0)) (?v_156 (= x_4 3)) (?v_166 (= x_5 0)) (?v_157 (= x_5 3)) (?v_98 (= x_6 0)) (?v_90 (= x_6 3)) (?v_100 (= x_7 0)) (?v_91 (= x_7 3)) (?v_234 (= x_50 0)) (?v_224 (= x_50 3)) (?v_168 (= x_83 0)) (?v_158 (= x_83 3)) (?v_102 (= x_107 0)) (?v_92 (= x_107 3)) (?v_38 (= x_131 0)) (?v_28 (= x_131 3)) (?v_34 (= x_132 0)) (?v_26 (= x_132 3)) (?v_36 (= x_133 0)) (?v_27 (= x_133 3)) (?v_85 (not ?v_83)) (?v_86 (not ?v_84)) (?v_149 (not ?v_147)) (?v_150 (not ?v_148)) (?v_215 (not ?v_213)) (?v_216 (not ?v_214)) (?v_279 (= x_14 0))) (let ((?v_281 (not ?v_279)) (?v_280 (= x_14 1))) (let ((?v_282 (not ?v_280)) (?v_4 (and (not (<= x_67 x_35)) (<= x_67 x_37))) (?v_10 (and (not (<= x_75 x_37)) (<= x_75 x_76))) (?v_16 (and (not (<= x_99 x_76)) (<= x_99 x_100))) (?v_22 (and (not (<= x_123 x_100)) (<= x_123 x_124))) (?v_30 (= x_132 (ite ?v_42 (ite (and ?v_55 (< x_6 3)) (+ x_6 1) x_6) x_6))) (?v_31 (= x_133 (ite ?v_44 (ite (and ?v_56 (< x_7 3)) (+ x_7 1) x_7) x_7))) (?v_33 (or x_102 ?v_26)) (?v_35 (or x_103 ?v_27)) (?v_37 (or x_101 ?v_28)) (?v_109 (not x_28)) (?v_94 (= x_6 (ite ?v_105 (ite (and ?v_119 (< x_4 3)) (+ x_4 1) x_4) x_4))) (?v_95 (= x_7 (ite ?v_107 (ite (and ?v_120 (< x_5 3)) (+ x_5 1) x_5) x_5))) (?v_97 (or x_78 ?v_90)) (?v_99 (or x_79 ?v_91)) (?v_101 (or x_77 ?v_92)) (?v_175 (not x_23)) (?v_160 (= x_4 (ite ?v_171 (ite (and ?v_185 (< x_2 3)) (+ x_2 1) x_2) x_2))) (?v_161 (= x_5 (ite ?v_173 (ite (and ?v_186 (< x_3 3)) (+ x_3 1) x_3) x_3))) (?v_163 (or x_40 ?v_156)) (?v_165 (or x_42 ?v_157)) (?v_167 (or x_38 ?v_158)) (?v_241 (not x_18)) (?v_226 (= x_2 (ite ?v_237 (ite (and ?v_251 (< x_0 3)) (+ x_0 1) x_0) x_0))) (?v_227 (= x_3 (ite ?v_239 (ite (and ?v_252 (< x_1 3)) (+ x_1 1) x_1) x_1))) (?v_229 (or x_41 ?v_222)) (?v_231 (or x_43 ?v_223)) (?v_233 (or x_39 ?v_224)) (?v_0 (+ (* x_10 2) x_9)) (?v_1 (ite ?v_2 2 1)) (?v_5 (ite ?v_2 3 2)) (?v_6 (ite ?v_2 1 0)) (?v_7 (ite ?v_8 2 1)) (?v_11 (ite ?v_8 3 2)) (?v_12 (ite ?v_8 1 0)) (?v_13 (ite ?v_14 2 1)) (?v_17 (ite ?v_14 3 2)) (?v_18 (ite ?v_14 1 0)) (?v_19 (ite ?v_20 2 1)) (?v_23 (ite ?v_20 3 2)) (?v_24 (ite ?v_20 1 0)) (?v_77 (<= (ite x_104 (ite x_106 (ite x_105 3 2) x_138) (ite x_106 x_138 (ite x_105 1 0))) (* (* (ite x_101 (ite x_103 (ite x_102 0 1) x_139) (ite x_103 x_139 (ite x_102 2 3))) 1) (/ 1 2)))) (?v_141 (<= (ite x_80 (ite x_82 (ite x_81 3 2) x_112) (ite x_82 x_112 (ite x_81 1 0))) (* (* (ite x_77 (ite x_79 (ite x_78 0 1) x_113) (ite x_79 x_113 (ite x_78 2 3))) 1) (/ 1 2)))) (?v_207 (<= (ite x_44 (ite x_48 (ite x_46 3 2) x_88) (ite x_48 x_88 (ite x_46 1 0))) (* (* (ite x_38 (ite x_42 (ite x_40 0 1) x_89) (ite x_42 x_89 (ite x_40 2 3))) 1) (/ 1 2)))) (?v_273 (<= (ite x_45 (ite x_49 (ite x_47 3 2) x_60) (ite x_49 x_60 (ite x_47 1 0))) (* (* (ite x_39 (ite x_43 (ite x_41 0 1) x_61) (ite x_43 x_61 (ite x_41 2 3))) 1) (/ 1 2))))) (and (and (and (and (and (and (and (and (and (and (and (and (and (and (and (and (and (and (and (and (and (and (and (and (and (and (and (and (and (and (and (and (and (and (and (and (and (and (and (and (and (and (and (and (and (and (and (and (and (and (and (and (and (and (and (and (and (and (and (and (and (and (and (and (and (and (and (and (and (and (and (and (and (and (and (and (and (and (and (and (and (and (and (and (and (and (and (and (and (and (and (and (and (and (and (and (and (and (and (and (and (and (and (and (and (and (and (and (and (and (and (and (and (and (and (and (and (and (and (and (and (and (and (and (and (and (and (and (and (and (and (and (and (and (and (and (and (and (and (and (and (and (and (and (and (and (and (and (and (and (and (and (and (and (and (and (and (and (and (and (and (and (and (and (and (and (and (and (and (and (and (and (and (and (and (<= x_34 2) (>= x_34 0)) (<= x_29 2)) (>= x_29 0)) (<= x_24 2)) (>= x_24 0)) (<= x_19 2)) (>= x_19 0)) (<= x_14 2)) (>= x_14 0)) (or (or (or (= x_0 0) (= x_0 1)) (= x_0 2)) (= x_0 3))) (not (< x_0 0))) (<= x_0 3)) (or (or (or (= x_1 0) (= x_1 1)) (= x_1 2)) (= x_1 3))) (not (< x_1 0))) (<= x_1 3)) (or (or (or ?v_230 (= x_2 1)) (= x_2 2)) ?v_222)) (not (< x_2 0))) (<= x_2 3)) (or (or (or ?v_232 (= x_3 1)) (= x_3 2)) ?v_223)) (not (< x_3 0))) (<= x_3 3)) (or (or (or ?v_164 (= x_4 1)) (= x_4 2)) ?v_156)) (not (< x_4 0))) (<= x_4 3)) (or (or (or ?v_166 (= x_5 1)) (= x_5 2)) ?v_157)) (not (< x_5 0))) (<= x_5 3)) (or (or (or ?v_98 (= x_6 1)) (= x_6 2)) ?v_90)) (not (< x_6 0))) (<= x_6 3)) (or (or (or ?v_100 (= x_7 1)) (= x_7 2)) ?v_91)) (not (< x_7 0))) (<= x_7 3)) (>= x_8 0)) (> x_9 0)) (>= x_9 0)) (not (<= x_10 (* x_9 3)))) (>= x_10 0)) (>= x_15 0)) (>= x_20 0)) (>= x_25 0)) (>= x_30 0)) (>= x_35 0)) (>= x_36 0)) (>= x_37 0)) (or (or (or ?v_234 (= x_50 1)) (= x_50 2)) ?v_224)) (not (< x_50 0))) (<= x_50 3)) (or (or (or (= x_51 0) (= x_51 1)) (= x_51 2)) (= x_51 3))) (not (< x_51 0))) (<= x_51 3)) (>= x_58 0)) (>= x_59 0)) (>= x_62 0)) (>= x_63 0)) (>= x_64 0)) (>= x_67 0)) (>= x_70 0)) (>= x_71 0)) (>= x_73 0)) (>= x_74 0)) (>= x_75 0)) (>= x_76 0)) (or (or (or ?v_168 (= x_83 1)) (= x_83 2)) ?v_158)) (not (< x_83 0))) (<= x_83 3)) (>= x_87 0)) (>= x_94 0)) (>= x_95 0)) (>= x_97 0)) (>= x_98 0)) (>= x_99 0)) (>= x_100 0)) (or (or (or ?v_102 (= x_107 1)) (= x_107 2)) ?v_92)) (not (< x_107 0))) (<= x_107 3)) (>= x_111 0)) (>= x_118 0)) (>= x_119 0)) (>= x_121 0)) (>= x_122 0)) (>= x_123 0)) (>= x_124 0)) (or (or (or ?v_38 (= x_131 1)) (= x_131 2)) ?v_28)) (not (< x_131 0))) (<= x_131 3)) (or (or (or ?v_34 (= x_132 1)) (= x_132 2)) ?v_26)) (not (< x_132 0))) (<= x_132 3)) (or (or (or ?v_36 (= x_133 1)) (= x_133 2)) ?v_27)) (not (< x_133 0))) (<= x_133 3)) (>= x_137 0)) (>= x_144 0)) (>= x_145 0)) (>= x_147 0)) (>= x_148 0)) (>= x_149 0)) (<= x_6 2)) (<= x_7 2)) (<= x_4 2)) (<= x_5 2)) (<= x_2 2)) (<= x_3 2)) (<= x_0 2)) (<= x_1 2)) (< x_30 ?v_0)) (or (not ?v_25) (and x_33 x_31))) (or (not ?v_40) (and x_32 x_31))) (or (not ?v_70) (and x_32 x_33))) (< x_25 ?v_0)) (or ?v_85 (and x_28 x_26))) (or ?v_86 (and x_27 x_26))) (or (not ?v_134) (and x_27 x_28))) (< x_20 ?v_0)) (or ?v_149 (and x_23 x_21))) (or ?v_150 (and x_22 x_21))) (or (not ?v_200) (and x_22 x_23))) (< x_15 ?v_0)) (or ?v_215 (and x_18 x_16))) (or ?v_216 (and x_17 x_16))) (or (not ?v_266) (and x_17 x_18))) (< x_8 ?v_0)) (or ?v_281 (and x_13 x_11))) (or ?v_282 (and x_12 x_11))) (or (not (= x_14 2)) (and x_12 x_13))) (= x_60 (ite x_47 2 1))) (= x_61 (ite x_41 1 2))) (= x_65 ?v_1)) (= x_66 ?v_1)) (= x_68 (+ (ite ?v_4 (ite ?v_3 ?v_5 x_65) (ite ?v_3 x_65 ?v_6)) x_51))) (= x_69 (+ (ite ?v_4 (ite ?v_3 ?v_5 x_66) (ite ?v_3 x_66 ?v_6)) x_51))) (= x_88 (ite x_46 2 1))) (= x_89 (ite x_40 1 2))) (= x_90 ?v_7)) (= x_91 ?v_7)) (= x_92 (+ (ite ?v_10 (ite ?v_9 ?v_11 x_90) (ite ?v_9 x_90 ?v_12)) x_50))) (= x_93 (+ (ite ?v_10 (ite ?v_9 ?v_11 x_91) (ite ?v_9 x_91 ?v_12)) x_50))) (= x_112 (ite x_81 2 1))) (= x_113 (ite x_78 1 2))) (= x_114 ?v_13)) (= x_115 ?v_13)) (= x_116 (+ (ite ?v_16 (ite ?v_15 ?v_17 x_114) (ite ?v_15 x_114 ?v_18)) x_83))) (= x_117 (+ (ite ?v_16 (ite ?v_15 ?v_17 x_115) (ite ?v_15 x_115 ?v_18)) x_83))) (= x_138 (ite x_105 2 1))) (= x_139 (ite x_102 1 2))) (= x_140 ?v_19)) (= x_141 ?v_19)) (= x_142 (+ (ite ?v_22 (ite ?v_21 ?v_23 x_140) (ite ?v_21 x_140 ?v_24)) x_107))) (= x_143 (+ (ite ?v_22 (ite ?v_21 ?v_23 x_141) (ite ?v_21 x_141 ?v_24)) x_107))) (or (or (and (and (and (and (and (and (or (and (and (and (and (and (and (and (and (and (and ?v_25 ?v_29) ?v_54) ?v_30) ?v_31) (= x_131 (ite ?v_32 (ite (not (< x_142 3)) 3 x_142) x_107))) (= x_126 ?v_33)) (= x_127 ?v_35)) (= x_125 ?v_37)) ?v_66) ?v_39) (and (and (and (and (and (and (and (and (and (and ?v_25 (not ?v_29)) x_32) (= x_124 x_25)) ?v_30) ?v_31) (= x_131 (ite ?v_32 (ite (not (< x_143 3)) 3 x_143) x_107))) (= x_126 (or ?v_33 ?v_34))) (= x_127 (or ?v_35 ?v_36))) (= x_125 (or ?v_37 ?v_38))) ?v_39)) ?v_64) ?v_65) ?v_82) ?v_67) ?v_68) ?v_69) (and (and (and (and (and (and (and (or (and (and (and (and (and (and (and (and (and (and (and ?v_40 (or (or (and (and (and ?v_41 ?v_42) ?v_51) ?v_47) (and (and (and ?v_43 ?v_44) ?v_52) ?v_49)) (and (and ?v_32 ?v_53) ?v_50))) (not x_33)) (or (or (or (or ?v_46 ?v_58) x_109) x_102) (not (< x_124 x_118)))) (or (or (or (or ?v_48 ?v_59) x_110) x_103) (not (< x_124 x_119)))) (or (or (or ?v_60 x_108) x_101) (not (< x_124 x_121)))) (or (or (or (and (and (and (and ?v_51 ?v_42) ?v_47) ?v_71) ?v_72) (and (and (and (and ?v_52 ?v_44) ?v_49) ?v_73) ?v_74)) (and (and (and (and ?v_53 ?v_32) ?v_50) ?v_75) ?v_76)) (and (< x_111 ?v_61) ?v_54))) (= x_135 (or x_109 ?v_55))) (= x_136 (or x_110 ?v_56))) (= x_134 (or x_108 ?v_57))) ?v_62) ?v_63) (and (and (and (and (and (and (and (and (and ?v_40 (or (or (or ?v_46 x_109) x_102) ?v_58)) (or (or (or ?v_48 x_110) x_103) ?v_59)) (or (or x_108 x_101) ?v_60)) x_33) (= x_124 ?v_61)) ?v_62) ?v_63) ?v_64) ?v_65)) ?v_80) ?v_81) ?v_39) ?v_66) ?v_67) ?v_68) ?v_69)) (and (and (and (and (and (and (and (or (and (and (and (and (and (and (and (and (and (and (and ?v_70 ?v_77) (not x_31)) (or (or (or ?v_46 x_105) x_102) (<= x_124 x_118))) (or (or (or ?v_48 x_106) x_103) (<= x_124 x_119))) (or (or x_104 x_101) (<= x_124 x_121))) (or (or (or (and (and (and (and (not x_105) ?v_42) (< x_100 x_118)) ?v_71) ?v_72) (and (and (and (and (not x_106) ?v_44) (< x_100 x_119)) ?v_73) ?v_74)) (and (and (and (not x_104) ?v_32) ?v_75) ?v_76)) ?v_54)) (= x_129 (or x_105 (= x_118 x_124)))) (= x_130 (or x_106 (= x_119 x_124)))) (= x_128 (or x_104 (= x_121 x_124)))) ?v_78) ?v_79) (and (and (and (and (and (and (and ?v_70 (not ?v_77)) x_31) ?v_78) ?v_79) (= x_124 x_100)) ?v_67) ?v_68)) ?v_80) ?v_81) ?v_39) ?v_66) ?v_64) ?v_65) ?v_82))) (or (or (and ?v_83 (= x_34 (ite (not x_27) x_29 1))) (and ?v_84 (= x_34 (ite ?v_109 x_29 2)))) (and (and ?v_85 ?v_86) (= x_34 x_29)))) (or (and (and ?v_87 (not (<= x_137 x_144))) (not (<= x_144 ?v_88))) (and ?v_89 (= x_144 x_118)))) (or (and (and ?v_87 (not (<= x_137 x_145))) (not (<= x_145 ?v_88))) (and ?v_89 (= x_145 x_119)))) (or (and (and ?v_87 (= x_137 (+ x_111 x_10))) x_146) (and (and ?v_89 (not x_146)) (= x_137 x_111)))) (or (and (and (and (and ?v_57 (not (<= x_147 x_124))) (not (<= x_148 x_124))) (< x_147 x_148)) (< x_148 x_149)) (and (and (and (not ?v_57) (= x_147 x_121)) (= x_148 x_122)) (= x_149 x_123)))) (or (or (and (and (and (and (and (and (or (and (and (and (and (and (and (and (and (and (and ?v_83 ?v_93) ?v_118) ?v_94) ?v_95) (= x_107 (ite ?v_96 (ite (not (< x_116 3)) 3 x_116) x_83))) (= x_102 ?v_97)) (= x_103 ?v_99)) (= x_101 ?v_101)) ?v_130) ?v_103) (and (and (and (and (and (and (and (and (and (and ?v_83 (not ?v_93)) x_27) (= x_100 x_20)) ?v_94) ?v_95) (= x_107 (ite ?v_96 (ite (not (< x_117 3)) 3 x_117) x_83))) (= x_102 (or ?v_97 ?v_98))) (= x_103 (or ?v_99 ?v_100))) (= x_101 (or ?v_101 ?v_102))) ?v_103)) ?v_128) ?v_129) ?v_146) ?v_131) ?v_132) ?v_133) (and (and (and (and (and (and (and (or (and (and (and (and (and (and (and (and (and (and (and ?v_84 (or (or (and (and (and ?v_104 ?v_105) ?v_115) ?v_111) (and (and (and ?v_106 ?v_107) ?v_116) ?v_113)) (and (and ?v_96 ?v_117) ?v_114))) ?v_109) (or (or (or (or ?v_110 ?v_122) x_85) x_78) (not (< x_100 x_94)))) (or (or (or (or ?v_112 ?v_123) x_86) x_79) (not (< x_100 x_95)))) (or (or (or ?v_124 x_84) x_77) (not (< x_100 x_97)))) (or (or (or (and (and (and (and ?v_115 ?v_105) ?v_111) ?v_135) ?v_136) (and (and (and (and ?v_116 ?v_107) ?v_113) ?v_137) ?v_138)) (and (and (and (and ?v_117 ?v_96) ?v_114) ?v_139) ?v_140)) (and (< x_87 ?v_125) ?v_118))) (= x_109 (or x_85 ?v_119))) (= x_110 (or x_86 ?v_120))) (= x_108 (or x_84 ?v_121))) ?v_126) ?v_127) (and (and (and (and (and (and (and (and (and ?v_84 (or (or (or ?v_110 x_85) x_78) ?v_122)) (or (or (or ?v_112 x_86) x_79) ?v_123)) (or (or x_84 x_77) ?v_124)) x_28) (= x_100 ?v_125)) ?v_126) ?v_127) ?v_128) ?v_129)) ?v_144) ?v_145) ?v_103) ?v_130) ?v_131) ?v_132) ?v_133)) (and (and (and (and (and (and (and (or (and (and (and (and (and (and (and (and (and (and (and ?v_134 ?v_141) (not x_26)) (or (or (or ?v_110 x_81) x_78) (<= x_100 x_94))) (or (or (or ?v_112 x_82) x_79) (<= x_100 x_95))) (or (or x_80 x_77) (<= x_100 x_97))) (or (or (or (and (and (and (and (not x_81) ?v_105) (< x_76 x_94)) ?v_135) ?v_136) (and (and (and (and (not x_82) ?v_107) (< x_76 x_95)) ?v_137) ?v_138)) (and (and (and (not x_80) ?v_96) ?v_139) ?v_140)) ?v_118)) (= x_105 (or x_81 (= x_94 x_100)))) (= x_106 (or x_82 (= x_95 x_100)))) (= x_104 (or x_80 (= x_97 x_100)))) ?v_142) ?v_143) (and (and (and (and (and (and (and ?v_134 (not ?v_141)) x_26) ?v_142) ?v_143) (= x_100 x_76)) ?v_131) ?v_132)) ?v_144) ?v_145) ?v_103) ?v_130) ?v_128) ?v_129) ?v_146))) (or (or (and ?v_147 (= x_29 (ite (not x_22) x_24 1))) (and ?v_148 (= x_29 (ite ?v_175 x_24 2)))) (and (and ?v_149 ?v_150) (= x_29 x_24)))) (or (and (and ?v_151 (not (<= x_111 x_118))) (not (<= x_118 ?v_152))) (and ?v_153 (= x_118 x_94)))) (or (and (and ?v_151 (not (<= x_111 x_119))) (not (<= x_119 ?v_152))) (and ?v_153 (= x_119 x_95)))) (or (and (and ?v_151 (= x_111 (+ x_87 x_10))) x_120) (and (and ?v_153 (not x_120)) (= x_111 x_87)))) (or (and (and (and (and ?v_121 ?v_154) ?v_155) (< x_121 x_122)) (< x_122 x_123)) (and (and (and (not ?v_121) (= x_121 x_97)) (= x_122 x_98)) (= x_123 x_99)))) (or (or (and (and (and (and (and (and (or (and (and (and (and (and (and (and (and (and (and ?v_147 ?v_159) ?v_184) ?v_160) ?v_161) (= x_83 (ite ?v_162 (ite (not (< x_92 3)) 3 x_92) x_50))) (= x_78 ?v_163)) (= x_79 ?v_165)) (= x_77 ?v_167)) ?v_196) ?v_169) (and (and (and (and (and (and (and (and (and (and ?v_147 (not ?v_159)) x_22) (= x_76 x_15)) ?v_160) ?v_161) (= x_83 (ite ?v_162 (ite (not (< x_93 3)) 3 x_93) x_50))) (= x_78 (or ?v_163 ?v_164))) (= x_79 (or ?v_165 ?v_166))) (= x_77 (or ?v_167 ?v_168))) ?v_169)) ?v_194) ?v_195) ?v_212) ?v_197) ?v_198) ?v_199) (and (and (and (and (and (and (and (or (and (and (and (and (and (and (and (and (and (and (and ?v_148 (or (or (and (and (and ?v_170 ?v_171) ?v_181) ?v_177) (and (and (and ?v_172 ?v_173) ?v_182) ?v_179)) (and (and ?v_162 ?v_183) ?v_180))) ?v_175) (or (or (or (or ?v_176 ?v_188) x_54) x_40) (not (< x_76 x_70)))) (or (or (or (or ?v_178 ?v_189) x_56) x_42) (not (< x_76 x_71)))) (or (or (or ?v_190 x_52) x_38) (not (< x_76 x_73)))) (or (or (or (and (and (and (and ?v_181 ?v_171) ?v_177) ?v_201) ?v_202) (and (and (and (and ?v_182 ?v_173) ?v_179) ?v_203) ?v_204)) (and (and (and (and ?v_183 ?v_162) ?v_180) ?v_205) ?v_206)) (and (< x_58 ?v_191) ?v_184))) (= x_85 (or x_54 ?v_185))) (= x_86 (or x_56 ?v_186))) (= x_84 (or x_52 ?v_187))) ?v_192) ?v_193) (and (and (and (and (and (and (and (and (and ?v_148 (or (or (or ?v_176 x_54) x_40) ?v_188)) (or (or (or ?v_178 x_56) x_42) ?v_189)) (or (or x_52 x_38) ?v_190)) x_23) (= x_76 ?v_191)) ?v_192) ?v_193) ?v_194) ?v_195)) ?v_210) ?v_211) ?v_169) ?v_196) ?v_197) ?v_198) ?v_199)) (and (and (and (and (and (and (and (or (and (and (and (and (and (and (and (and (and (and (and ?v_200 ?v_207) (not x_21)) (or (or (or ?v_176 x_46) x_40) (<= x_76 x_70))) (or (or (or ?v_178 x_48) x_42) (<= x_76 x_71))) (or (or x_44 x_38) (<= x_76 x_73))) (or (or (or (and (and (and (and (not x_46) ?v_171) (< x_37 x_70)) ?v_201) ?v_202) (and (and (and (and (not x_48) ?v_173) (< x_37 x_71)) ?v_203) ?v_204)) (and (and (and (not x_44) ?v_162) ?v_205) ?v_206)) ?v_184)) (= x_81 (or x_46 (= x_70 x_76)))) (= x_82 (or x_48 (= x_71 x_76)))) (= x_80 (or x_44 (= x_73 x_76)))) ?v_208) ?v_209) (and (and (and (and (and (and (and ?v_200 (not ?v_207)) x_21) ?v_208) ?v_209) (= x_76 x_37)) ?v_197) ?v_198)) ?v_210) ?v_211) ?v_169) ?v_196) ?v_194) ?v_195) ?v_212))) (or (or (and ?v_213 (= x_24 (ite (not x_17) x_19 1))) (and ?v_214 (= x_24 (ite ?v_241 x_19 2)))) (and (and ?v_215 ?v_216) (= x_24 x_19)))) (or (and (and ?v_217 (not (<= x_87 x_94))) (not (<= x_94 ?v_218))) (and ?v_219 (= x_94 x_70)))) (or (and (and ?v_217 (not (<= x_87 x_95))) (not (<= x_95 ?v_218))) (and ?v_219 (= x_95 x_71)))) (or (and (and ?v_217 (= x_87 (+ x_58 x_10))) x_96) (and (and ?v_219 (not x_96)) (= x_87 x_58)))) (or (and (and (and (and ?v_187 ?v_220) ?v_221) (< x_97 x_98)) (< x_98 x_99)) (and (and (and (not ?v_187) (= x_97 x_73)) (= x_98 x_74)) (= x_99 x_75)))) (or (or (and (and (and (and (and (and (or (and (and (and (and (and (and (and (and (and (and ?v_213 ?v_225) ?v_250) ?v_226) ?v_227) (= x_50 (ite ?v_228 (ite (not (< x_68 3)) 3 x_68) x_51))) (= x_40 ?v_229)) (= x_42 ?v_231)) (= x_38 ?v_233)) ?v_262) ?v_235) (and (and (and (and (and (and (and (and (and (and ?v_213 (not ?v_225)) x_17) (= x_37 x_8)) ?v_226) ?v_227) (= x_50 (ite ?v_228 (ite (not (< x_69 3)) 3 x_69) x_51))) (= x_40 (or ?v_229 ?v_230))) (= x_42 (or ?v_231 ?v_232))) (= x_38 (or ?v_233 ?v_234))) ?v_235)) ?v_260) ?v_261) ?v_278) ?v_263) ?v_264) ?v_265) (and (and (and (and (and (and (and (or (and (and (and (and (and (and (and (and (and (and (and ?v_214 (or (or (and (and (and ?v_236 ?v_237) ?v_247) ?v_243) (and (and (and ?v_238 ?v_239) ?v_248) ?v_245)) (and (and ?v_228 ?v_249) ?v_246))) ?v_241) (or (or (or (or ?v_242 ?v_254) x_55) x_41) (not (< x_37 x_62)))) (or (or (or (or ?v_244 ?v_255) x_57) x_43) (not (< x_37 x_63)))) (or (or (or ?v_256 x_53) x_39) (not (< x_37 x_59)))) (or (or (or (and (and (and (and ?v_247 ?v_237) ?v_243) ?v_267) ?v_268) (and (and (and (and ?v_248 ?v_239) ?v_245) ?v_269) ?v_270)) (and (and (and (and ?v_249 ?v_228) ?v_246) ?v_271) ?v_272)) (and (< x_36 ?v_257) ?v_250))) (= x_54 (or x_55 ?v_251))) (= x_56 (or x_57 ?v_252))) (= x_52 (or x_53 ?v_253))) ?v_258) ?v_259) (and (and (and (and (and (and (and (and (and ?v_214 (or (or (or ?v_242 x_55) x_41) ?v_254)) (or (or (or ?v_244 x_57) x_43) ?v_255)) (or (or x_53 x_39) ?v_256)) x_18) (= x_37 ?v_257)) ?v_258) ?v_259) ?v_260) ?v_261)) ?v_276) ?v_277) ?v_235) ?v_262) ?v_263) ?v_264) ?v_265)) (and (and (and (and (and (and (and (or (and (and (and (and (and (and (and (and (and (and (and ?v_266 ?v_273) (not x_16)) (or (or (or ?v_242 x_47) x_41) (<= x_37 x_62))) (or (or (or ?v_244 x_49) x_43) (<= x_37 x_63))) (or (or x_45 x_39) (<= x_37 x_59))) (or (or (or (and (and (and (and (not x_47) ?v_237) (< x_35 x_62)) ?v_267) ?v_268) (and (and (and (and (not x_49) ?v_239) (< x_35 x_63)) ?v_269) ?v_270)) (and (and (and (not x_45) ?v_228) ?v_271) ?v_272)) ?v_250)) (= x_46 (or x_47 (= x_62 x_37)))) (= x_48 (or x_49 (= x_63 x_37)))) (= x_44 (or x_45 (= x_59 x_37)))) ?v_274) ?v_275) (and (and (and (and (and (and (and ?v_266 (not ?v_273)) x_16) ?v_274) ?v_275) (= x_37 x_35)) ?v_263) ?v_264)) ?v_276) ?v_277) ?v_235) ?v_262) ?v_260) ?v_261) ?v_278))) (or (or (and ?v_279 (= x_19 (ite (not x_12) x_14 1))) (and ?v_280 (= x_19 (ite (not x_13) x_14 2)))) (and (and ?v_281 ?v_282) (= x_19 x_14)))) (or (and (and ?v_283 (not (<= x_58 x_70))) (not (<= x_70 ?v_284))) (and ?v_285 (= x_70 x_62)))) (or (and (and ?v_283 (not (<= x_58 x_71))) (not (<= x_71 ?v_284))) (and ?v_285 (= x_71 x_63)))) (or (and (and ?v_283 (= x_58 (+ x_36 x_10))) x_72) (and (and ?v_285 (not x_72)) (= x_58 x_36)))) (or (and (and (and (and ?v_253 ?v_286) ?v_287) (< x_73 x_74)) (< x_74 x_75)) (and (and (and (not ?v_253) (= x_73 x_59)) (= x_74 x_64)) (= x_75 x_67)))) (or (not (<= x_132 2)) (not (<= x_133 2)))))))))))))))))))))))))))))))))))
(check-sat)
(exit)
